instances/knapsack/discrete/knapsack_150_9.lp
\ Model knapsack_150_9
\ LP format - for model browsing. Use MPS format to capture full model detail.
\ Signature: 0x1d3d114bfbe69093
Minimize
  - 70 x[0] - 55 x[1] - 36 x[2] - 28 x[3] - 74 x[4] - 9 x[5] - 66 x[6]
   - 96 x[7] - 55 x[8] - 83 x[9] - 31 x[10] - 63 x[11] - 39 x[12]
   - 98 x[13] - 11 x[14] - 44 x[15] - 6 x[16] - 14 x[17] - 91 x[18]
   - 58 x[19] - 6 x[20] - 27 x[21] - 36 x[22] - 40 x[23] - 49 x[24]
   - 75 x[25] - 56 x[26] - 24 x[27] - 58 x[28] - 49 x[29] - 77 x[30]
   - 48 x[31] - 48 x[32] - 59 x[33] - 36 x[34] - 89 x[35] - 33 x[36]
   - 43 x[37] - 83 x[38] - 20 x[39] - 80 x[40] - 30 x[41] - 38 x[42]
   - 75 x[43] - 63 x[44] - 87 x[45] - 5 x[46] - 25 x[47] - 65 x[48]
   - 22 x[49] - 59 x[50] - 79 x[51] - 91 x[52] - 89 x[53] - 16 x[54]
   - 2 x[55] - 71 x[56] - 92 x[57] - 64 x[58] - 59 x[59] - 60 x[60]
   - 18 x[61] - 82 x[62] - 34 x[63] - 51 x[64] - 61 x[65] - 41 x[66]
   - 34 x[67] - 37 x[68] - 42 x[69] - 69 x[70] - 15 x[71] - 57 x[72]
   - 82 x[73] - 35 x[74] - 14 x[75] - 82 x[76] - 29 x[77] - 92 x[78]
   - 40 x[79] - 31 x[80] - 86 x[81] - 38 x[82] - 2 x[83] - 89 x[84]
   - 89 x[85] - 62 x[86] - 11 x[87] - 12 x[88] - 75 x[89] - 82 x[90]
   - 98 x[91] - 54 x[92] - 53 x[93] - 100 x[94] - 83 x[95] - 45 x[96]
   - 64 x[97] - 53 x[98] - 45 x[99] - 73 x[100] - 42 x[101] - 67 x[102]
   - 82 x[103] - 87 x[104] - 67 x[105] - 46 x[106] - 61 x[107] - 66 x[108]
   - 45 x[109] - 10 x[110] - 66 x[111] - 62 x[112] - 76 x[113] - 54 x[114]
   - 29 x[115] - 23 x[116] - 73 x[117] - 46 x[118] - 31 x[119] - 66 x[120]
   - 3 x[121] - 78 x[122] - 39 x[123] - 100 x[124] - x[125] - 61 x[126]
   - 70 x[127] - 28 x[128] - 93 x[129] - 91 x[130] - 35 x[131] - 92 x[132]
   - 43 x[133] - 14 x[134] - 48 x[135] - 49 x[136] - 42 x[137] - 59 x[138]
   - 66 x[139] - 42 x[140] - 49 x[141] - 98 x[142] - 72 x[143] - 80 x[144]
   - 31 x[145] - 5 x[146] - 7 x[147] - 77 x[148] - 3 x[149]
Subject To
 primal_upper: 16 x[0] + 52 x[1] + 66 x[2] + 15 x[3] + 16 x[4] + 2 x[5]
   + 25 x[6] + 28 x[7] + 49 x[8] + 18 x[9] + 40 x[10] + 51 x[11] + 52 x[12]
   + 40 x[13] + 61 x[14] + 25 x[15] + 97 x[16] + 32 x[17] + 89 x[18]
   + 18 x[19] + 57 x[20] + 8 x[21] + 40 x[22] + 55 x[23] + 57 x[24]
   + 68 x[25] + 14 x[26] + 88 x[27] + 66 x[28] + 95 x[29] + 78 x[30]
   + 76 x[31] + 60 x[32] + 73 x[33] + 4 x[34] + 49 x[35] + 56 x[36]
   + 97 x[37] + 40 x[38] + 43 x[39] + 15 x[40] + 66 x[41] + 46 x[42]
   + 86 x[43] + 23 x[44] + 59 x[45] + 70 x[46] + 14 x[47] + 55 x[48]
   + 12 x[49] + 47 x[50] + 88 x[51] + 5 x[52] + 12 x[53] + 45 x[54]
   + 68 x[55] + 57 x[56] + 11 x[57] + 24 x[58] + 30 x[59] + 57 x[60]
   + 19 x[61] + 92 x[62] + 19 x[63] + 76 x[64] + 96 x[65] + 61 x[66]
   + 23 x[67] + 32 x[68] + 42 x[69] + 90 x[70] + 50 x[71] + 74 x[72]
   + 71 x[73] + 92 x[74] + 9 x[75] + 15 x[76] + 67 x[77] + 69 x[78]
   + 7 x[79] + 58 x[80] + 26 x[81] + 79 x[82] + 34 x[83] + 54 x[84]
   + 50 x[85] + 76 x[86] + 60 x[87] + 22 x[88] + 83 x[89] + 89 x[90]
   + 61 x[91] + 5 x[92] + 20 x[93] + 20 x[94] + 41 x[95] + 5 x[96]
   + 81 x[97] + 16 x[98] + 68 x[99] + 41 x[100] + 16 x[101] + 14 x[102]
   + 52 x[103] + x[104] + 62 x[105] + 79 x[106] + 3 x[107] + 19 x[108]
   + 93 x[109] + 19 x[110] + 79 x[111] + 81 x[112] + 73 x[113] + 97 x[114]
   + 3 x[115] + 27 x[116] + 65 x[117] + 61 x[118] + 21 x[119] + 56 x[120]
   + 93 x[121] + 16 x[122] + 63 x[123] + 33 x[124] + 11 x[125] + 28 x[126]
   + 76 x[127] + 15 x[128] + 19 x[129] + 86 x[130] + 89 x[131] + 79 x[132]
   + 60 x[133] + 13 x[134] + 14 x[135] + 41 x[136] + 99 x[137] + 6 x[138]
   + 56 x[139] + 63 x[140] + 29 x[141] + 27 x[142] + 23 x[143] + 93 x[144]
   + 22 x[145] + 38 x[146] + 71 x[147] + 25 x[148] + 2 x[149] + 1.6 r[0]
   + 5.2 r[1] + 6.6 r[2] + 1.5 r[3] + 1.6 r[4] + 0.2 r[5] + 2.5 r[6]
   + 2.8 r[7] + 4.9 r[8] + 1.8 r[9] + 4 r[10] + 5.1 r[11] + 5.2 r[12]
   + 4 r[13] + 6.1 r[14] + 2.5 r[15] + 9.7 r[16] + 3.2 r[17] + 8.9 r[18]
   + 1.8 r[19] + 5.7 r[20] + 0.8 r[21] + 4 r[22] + 5.5 r[23] + 5.7 r[24]
   + 6.8 r[25] + 1.4 r[26] + 8.8 r[27] + 6.6 r[28] + 9.5 r[29] + 7.8 r[30]
   + 7.6 r[31] + 6 r[32] + 7.3 r[33] + 0.4 r[34] + 4.9 r[35] + 5.6 r[36]
   + 9.7 r[37] + 4 r[38] + 4.3 r[39] + 1.5 r[40] + 6.6 r[41] + 4.6 r[42]
   + 8.6 r[43] + 2.3 r[44] + 5.9 r[45] + 7 r[46] + 1.4 r[47] + 5.5 r[48]
   + 1.2 r[49] + 4.7 r[50] + 8.8 r[51] + 0.5 r[52] + 1.2 r[53] + 4.5 r[54]
   + 6.8 r[55] + 5.7 r[56] + 1.1 r[57] + 2.4 r[58] + 3 r[59] + 5.7 r[60]
   + 1.9 r[61] + 9.2 r[62] + 1.9 r[63] + 7.6 r[64] + 9.6 r[65] + 6.1 r[66]
   + 2.3 r[67] + 3.2 r[68] + 4.2 r[69] + 9 r[70] + 5 r[71] + 7.4 r[72]
   + 7.1 r[73] + 9.2 r[74] + 0.9 r[75] + 1.5 r[76] + 6.7 r[77] + 6.9 r[78]
   + 0.7 r[79] + 5.8 r[80] + 2.6 r[81] + 7.9 r[82] + 3.4 r[83] + 5.4 r[84]
   + 5 r[85] + 7.6 r[86] + 6 r[87] + 2.2 r[88] + 8.3 r[89] + 8.9 r[90]
   + 6.1 r[91] + 0.5 r[92] + 2 r[93] + 2 r[94] + 4.1 r[95] + 0.5 r[96]
   + 8.1 r[97] + 1.6 r[98] + 6.8 r[99] + 4.1 r[100] + 1.6 r[101]
   + 1.4 r[102] + 5.2 r[103] + 0.1 r[104] + 6.2 r[105] + 7.9 r[106]
   + 0.3 r[107] + 1.9 r[108] + 9.3 r[109] + 1.9 r[110] + 7.9 r[111]
   + 8.1 r[112] + 7.3 r[113] + 9.7 r[114] + 0.3 r[115] + 2.7 r[116]
   + 6.5 r[117] + 6.1 r[118] + 2.1 r[119] + 5.6 r[120] + 9.3 r[121]
   + 1.6 r[122] + 6.3 r[123] + 3.3 r[124] + 1.1 r[125] + 2.8 r[126]
   + 7.6 r[127] + 1.5 r[128] + 1.9 r[129] + 8.6 r[130] + 8.9 r[131]
   + 7.9 r[132] + 6 r[133] + 1.3 r[134] + 1.4 r[135] + 4.1 r[136]
   + 9.9 r[137] + 0.6 r[138] + 5.6 r[139] + 6.3 r[140] + 2.9 r[141]
   + 2.7 r[142] + 2.3 r[143] + 9.3 r[144] + 2.2 r[145] + 3.8 r[146]
   + 7.1 r[147] + 2.5 r[148] + 0.2 r[149] <= 667
 primal_lower: 0.0879467241190191 x[0] + 4.713154418941571 x[1]
   + 3.994735646584779 x[2] + 2.631314500783691 x[3]
   + 0.914220831527922 x[4] + 3.059962369032899 x[5]
   + 4.025887270705813 x[6] + 2.240669241678992 x[7]
   + 3.552688101362328 x[8] + 2.376624987511481 x[9]
   + 0.2572088687240678 x[10] + 0.483147046835088 x[11]
   + 0.0471817601443405 x[12] + 4.247104886178912 x[13]
   + 3.822855447381718 x[14] + 0.4194275022915176 x[15]
   + 2.908047312487481 x[16] + 0.1286982412659966 x[17]
   + 4.271489274688443 x[18] + 0.3134546560670286 x[19]
   + 1.068292017173845 x[20] + 4.624126169589617 x[21]
   + 1.091961539187299 x[22] + 2.961271020672531 x[23]
   + 1.676660327259473 x[24] + 3.193287959157555 x[25]
   + 2.297990157816059 x[26] + 0.0509567317981248 x[27]
   + 3.877729802995126 x[28] + 1.079340373133229 x[29]
   + 1.315077962524166 x[30] + 3.507063460159237 x[31]
   + 3.639614703523255 x[32] + 1.98549635140608 x[33]
   + 2.215355157923358 x[34] + 1.297842355056872 x[35]
   + 0.5519043159891781 x[36] + 2.747307796653932 x[37]
   + 3.861620155609975 x[38] + 3.873066376190815 x[39]
   + 3.694998981408105 x[40] + 3.866970169377054 x[41]
   + 0.6939350476978962 x[42] + 1.065767666680122 x[43]
   + 3.846558586701024 x[44] + 2.706286057587873 x[45]
   + 1.049514165330527 x[46] + 0.5829720502906192 x[47]
   + 0.9727078233968857 x[48] + 2.609271302026298 x[49]
   + 0.2358398766532208 x[50] + 1.685694782731276 x[51]
   + 0.1413519206730439 x[52] + 0.346499750700257 x[53]
   + 2.107249433415135 x[54] + 1.802392614061941 x[55]
   + 2.166812268074436 x[56] + 2.262940183745981 x[57]
   + 0.8971985812864476 x[58] + 1.017956898802392 x[59]
   + 1.873600015745076 x[60] + 4.054471290361947 x[61]
   + 2.895260716567556 x[62] + 4.081722590066023 x[63]
   + 2.513762305804335 x[64] + 1.348213600028218 x[65]
   + 0.7121628438753773 x[66] + 4.518729697005802 x[67]
   + 4.169899786716556 x[68] + 0.2120826866689361 x[69]
   + 4.251384549500995 x[70] + 1.585254706846742 x[71]
   + 0.8926047827461639 x[72] + 4.426964213196174 x[73]
   + 3.034927644453636 x[74] + 1.166390224848503 x[75]
   + 3.522701784444359 x[76] + 4.170286529171736 x[77]
   + 4.445329686485244 x[78] + 2.405904873088805 x[79]
   + 4.643578345168794 x[80] + 2.134380139879115 x[81]
   + 2.792432593195408 x[82] + 1.713853107675207 x[83]
   + 2.35338602205251 x[84] + 4.732592762926982 x[85]
   + 2.942407994209465 x[86] + 0.4725205757338766 x[87]
   + 1.396031216887638 x[88] + 3.040337927227681 x[89]
   + 1.998964590379971 x[90] + 1.23914447220589 x[91]
   + 1.503870338377416 x[92] + 4.88768777619977 x[93]
   + 3.730578774853445 x[94] + 0.9218116864459994 x[95]
   + 3.874544039687796 x[96] + 2.383272780916803 x[97]
   + 2.967784689723107 x[98] + 1.555585152181053 x[99]
   + 3.333541900364883 x[100] + 0.2889629884366552 x[101]
   + 3.876596246161077 x[102] + 3.068620509891468 x[103]
   + 2.296162890636689 x[104] + 3.26342274323758 x[105]
   + 4.511771208108761 x[106] + 4.445512294123422 x[107]
   + 4.402725448308916 x[108] + 0.7919660078185294 x[109]
   + 2.129917954524853 x[110] + 0.2482987035732813 x[111]
   + 0.0193829795042508 x[112] + 4.598307875872082 x[113]
   + 4.73039667411239 x[114] + 3.541476497836499 x[115]
   + 1.999811058753138 x[116] + 0.153484122187509 x[117]
   + 2.846305269928046 x[118] + 0.7956180453332889 x[119]
   + 4.8778858348926 x[120] + 3.16351582557077 x[121]
   + 1.847633518397293 x[122] + 0.5376799159088136 x[123]
   + 0.6007720277102958 x[124] + 3.485240217448016 x[125]
   + 1.145231118729126 x[126] + 2.352967309870737 x[127]
   + 1.432576697678829 x[128] + 4.234756130441212 x[129]
   + 0.949731125463008 x[130] + 0.6439333183129609 x[131]
   + 1.498397900661051 x[132] + 0.5908981869402339 x[133]
   + 0.5987878481152501 x[134] + 3.377608345361045 x[135]
   + 0.3266603815300906 x[136] + 4.508397478745317 x[137]
   + 2.806094336516989 x[138] + 4.188353258747628 x[139]
   + 4.720138264894436 x[140] + 3.666997898818818 x[141]
   + 1.825723657525757 x[142] + 0.9731094051218112 x[143]
   + 3.925149468881979 x[144] + 3.717648983024151 x[145]
   + 3.118424377689669 x[146] + 0.9755492935768079 x[147]
   + 4.081318578395056 x[148] + 3.862142068468803 x[149] + 10 u[0]
   + 67 u[1] + 25 u[2] + 78 u[3] + 95 u[4] + 40 u[5] + 76 u[6] + 42 u[7]
   + 60 u[8] + 53 u[9] + 46 u[10] + 38 u[11] + 19 u[12] + 11 u[13]
   + 51 u[14] + 27 u[15] + 8 u[16] + 91 u[17] + 64 u[18] + 93 u[19]
   + 60 u[20] + 78 u[21] + 31 u[22] + 45 u[23] + 39 u[24] + 15 u[25]
   + 25 u[26] + 90 u[27] + 36 u[28] + 78 u[29] + 84 u[30] + 26 u[31]
   + 78 u[32] + 44 u[33] + 3 u[34] + 96 u[35] + 7 u[36] + 91 u[37]
   + 91 u[38] + 9 u[39] + 30 u[40] + 36 u[41] + 49 u[42] + 44 u[43]
   + 54 u[44] + 65 u[45] + 96 u[46] + 4 u[47] + 26 u[48] + 39 u[49]
   + 85 u[50] + 27 u[51] + 60 u[52] + 95 u[53] + 19 u[54] + 82 u[55]
   + 68 u[56] + 5 u[57] + 67 u[58] + 77 u[59] + 67 u[60] + 97 u[61]
   + 62 u[62] + u[63] + 70 u[64] + 95 u[65] + 11 u[66] + 65 u[67]
   + 15 u[68] + 16 u[69] + 80 u[70] + 32 u[71] + 21 u[72] + 18 u[73]
   + 42 u[74] + 3 u[75] + 45 u[76] + 98 u[77] + 35 u[78] + 25 u[79]
   + 68 u[80] + 28 u[81] + 49 u[82] + 76 u[83] + 80 u[84] + 56 u[85]
   + 98 u[86] + 31 u[87] + 85 u[88] + 10 u[89] + 15 u[90] + 51 u[91]
   + 7 u[92] + 90 u[93] + 63 u[94] + 32 u[95] + 92 u[96] + 43 u[97]
   + 3 u[98] + 71 u[99] + 28 u[100] + 83 u[101] + 41 u[102] + 35 u[103]
   + 48 u[104] + 45 u[105] + 26 u[106] + 69 u[107] + 17 u[108] + 72 u[109]
   + 97 u[110] + 6 u[111] + 88 u[112] + 36 u[113] + 44 u[114] + 93 u[115]
   + 94 u[116] + 100 u[117] + 96 u[118] + 79 u[119] + 2 u[120] + 75 u[121]
   + 82 u[122] + 49 u[123] + 88 u[124] + 33 u[125] + 46 u[126] + 18 u[127]
   + 9 u[128] + 90 u[129] + 80 u[130] + 60 u[131] + 9 u[132] + 59 u[133]
   + 83 u[134] + 41 u[135] + 56 u[136] + 89 u[137] + 60 u[138] + 59 u[139]
   + 18 u[140] + 7 u[141] + 34 u[142] + 70 u[143] + 44 u[144] + 53 u[145]
   + 69 u[146] + 90 u[147] + 55 u[148] + 9 u[149] <= 52435
 mccormick1[0]: - u[0] + r[0] <= 0
 mccormick1[1]: - u[1] + r[1] <= 0
 mccormick1[2]: - u[2] + r[2] <= 0
 mccormick1[3]: - u[3] + r[3] <= 0
 mccormick1[4]: - u[4] + r[4] <= 0
 mccormick1[5]: - u[5] + r[5] <= 0
 mccormick1[6]: - u[6] + r[6] <= 0
 mccormick1[7]: - u[7] + r[7] <= 0
 mccormick1[8]: - u[8] + r[8] <= 0
 mccormick1[9]: - u[9] + r[9] <= 0
 mccormick1[10]: - u[10] + r[10] <= 0
 mccormick1[11]: - u[11] + r[11] <= 0
 mccormick1[12]: - u[12] + r[12] <= 0
 mccormick1[13]: - u[13] + r[13] <= 0
 mccormick1[14]: - u[14] + r[14] <= 0
 mccormick1[15]: - u[15] + r[15] <= 0
 mccormick1[16]: - u[16] + r[16] <= 0
 mccormick1[17]: - u[17] + r[17] <= 0
 mccormick1[18]: - u[18] + r[18] <= 0
 mccormick1[19]: - u[19] + r[19] <= 0
 mccormick1[20]: - u[20] + r[20] <= 0
 mccormick1[21]: - u[21] + r[21] <= 0
 mccormick1[22]: - u[22] + r[22] <= 0
 mccormick1[23]: - u[23] + r[23] <= 0
 mccormick1[24]: - u[24] + r[24] <= 0
 mccormick1[25]: - u[25] + r[25] <= 0
 mccormick1[26]: - u[26] + r[26] <= 0
 mccormick1[27]: - u[27] + r[27] <= 0
 mccormick1[28]: - u[28] + r[28] <= 0
 mccormick1[29]: - u[29] + r[29] <= 0
 mccormick1[30]: - u[30] + r[30] <= 0
 mccormick1[31]: - u[31] + r[31] <= 0
 mccormick1[32]: - u[32] + r[32] <= 0
 mccormick1[33]: - u[33] + r[33] <= 0
 mccormick1[34]: - u[34] + r[34] <= 0
 mccormick1[35]: - u[35] + r[35] <= 0
 mccormick1[36]: - u[36] + r[36] <= 0
 mccormick1[37]: - u[37] + r[37] <= 0
 mccormick1[38]: - u[38] + r[38] <= 0
 mccormick1[39]: - u[39] + r[39] <= 0
 mccormick1[40]: - u[40] + r[40] <= 0
 mccormick1[41]: - u[41] + r[41] <= 0
 mccormick1[42]: - u[42] + r[42] <= 0
 mccormick1[43]: - u[43] + r[43] <= 0
 mccormick1[44]: - u[44] + r[44] <= 0
 mccormick1[45]: - u[45] + r[45] <= 0
 mccormick1[46]: - u[46] + r[46] <= 0
 mccormick1[47]: - u[47] + r[47] <= 0
 mccormick1[48]: - u[48] + r[48] <= 0
 mccormick1[49]: - u[49] + r[49] <= 0
 mccormick1[50]: - u[50] + r[50] <= 0
 mccormick1[51]: - u[51] + r[51] <= 0
 mccormick1[52]: - u[52] + r[52] <= 0
 mccormick1[53]: - u[53] + r[53] <= 0
 mccormick1[54]: - u[54] + r[54] <= 0
 mccormick1[55]: - u[55] + r[55] <= 0
 mccormick1[56]: - u[56] + r[56] <= 0
 mccormick1[57]: - u[57] + r[57] <= 0
 mccormick1[58]: - u[58] + r[58] <= 0
 mccormick1[59]: - u[59] + r[59] <= 0
 mccormick1[60]: - u[60] + r[60] <= 0
 mccormick1[61]: - u[61] + r[61] <= 0
 mccormick1[62]: - u[62] + r[62] <= 0
 mccormick1[63]: - u[63] + r[63] <= 0
 mccormick1[64]: - u[64] + r[64] <= 0
 mccormick1[65]: - u[65] + r[65] <= 0
 mccormick1[66]: - u[66] + r[66] <= 0
 mccormick1[67]: - u[67] + r[67] <= 0
 mccormick1[68]: - u[68] + r[68] <= 0
 mccormick1[69]: - u[69] + r[69] <= 0
 mccormick1[70]: - u[70] + r[70] <= 0
 mccormick1[71]: - u[71] + r[71] <= 0
 mccormick1[72]: - u[72] + r[72] <= 0
 mccormick1[73]: - u[73] + r[73] <= 0
 mccormick1[74]: - u[74] + r[74] <= 0
 mccormick1[75]: - u[75] + r[75] <= 0
 mccormick1[76]: - u[76] + r[76] <= 0
 mccormick1[77]: - u[77] + r[77] <= 0
 mccormick1[78]: - u[78] + r[78] <= 0
 mccormick1[79]: - u[79] + r[79] <= 0
 mccormick1[80]: - u[80] + r[80] <= 0
 mccormick1[81]: - u[81] + r[81] <= 0
 mccormick1[82]: - u[82] + r[82] <= 0
 mccormick1[83]: - u[83] + r[83] <= 0
 mccormick1[84]: - u[84] + r[84] <= 0
 mccormick1[85]: - u[85] + r[85] <= 0
 mccormick1[86]: - u[86] + r[86] <= 0
 mccormick1[87]: - u[87] + r[87] <= 0
 mccormick1[88]: - u[88] + r[88] <= 0
 mccormick1[89]: - u[89] + r[89] <= 0
 mccormick1[90]: - u[90] + r[90] <= 0
 mccormick1[91]: - u[91] + r[91] <= 0
 mccormick1[92]: - u[92] + r[92] <= 0
 mccormick1[93]: - u[93] + r[93] <= 0
 mccormick1[94]: - u[94] + r[94] <= 0
 mccormick1[95]: - u[95] + r[95] <= 0
 mccormick1[96]: - u[96] + r[96] <= 0
 mccormick1[97]: - u[97] + r[97] <= 0
 mccormick1[98]: - u[98] + r[98] <= 0
 mccormick1[99]: - u[99] + r[99] <= 0
 mccormick1[100]: - u[100] + r[100] <= 0
 mccormick1[101]: - u[101] + r[101] <= 0
 mccormick1[102]: - u[102] + r[102] <= 0
 mccormick1[103]: - u[103] + r[103] <= 0
 mccormick1[104]: - u[104] + r[104] <= 0
 mccormick1[105]: - u[105] + r[105] <= 0
 mccormick1[106]: - u[106] + r[106] <= 0
 mccormick1[107]: - u[107] + r[107] <= 0
 mccormick1[108]: - u[108] + r[108] <= 0
 mccormick1[109]: - u[109] + r[109] <= 0
 mccormick1[110]: - u[110] + r[110] <= 0
 mccormick1[111]: - u[111] + r[111] <= 0
 mccormick1[112]: - u[112] + r[112] <= 0
 mccormick1[113]: - u[113] + r[113] <= 0
 mccormick1[114]: - u[114] + r[114] <= 0
 mccormick1[115]: - u[115] + r[115] <= 0
 mccormick1[116]: - u[116] + r[116] <= 0
 mccormick1[117]: - u[117] + r[117] <= 0
 mccormick1[118]: - u[118] + r[118] <= 0
 mccormick1[119]: - u[119] + r[119] <= 0
 mccormick1[120]: - u[120] + r[120] <= 0
 mccormick1[121]: - u[121] + r[121] <= 0
 mccormick1[122]: - u[122] + r[122] <= 0
 mccormick1[123]: - u[123] + r[123] <= 0
 mccormick1[124]: - u[124] + r[124] <= 0
 mccormick1[125]: - u[125] + r[125] <= 0
 mccormick1[126]: - u[126] + r[126] <= 0
 mccormick1[127]: - u[127] + r[127] <= 0
 mccormick1[128]: - u[128] + r[128] <= 0
 mccormick1[129]: - u[129] + r[129] <= 0
 mccormick1[130]: - u[130] + r[130] <= 0
 mccormick1[131]: - u[131] + r[131] <= 0
 mccormick1[132]: - u[132] + r[132] <= 0
 mccormick1[133]: - u[133] + r[133] <= 0
 mccormick1[134]: - u[134] + r[134] <= 0
 mccormick1[135]: - u[135] + r[135] <= 0
 mccormick1[136]: - u[136] + r[136] <= 0
 mccormick1[137]: - u[137] + r[137] <= 0
 mccormick1[138]: - u[138] + r[138] <= 0
 mccormick1[139]: - u[139] + r[139] <= 0
 mccormick1[140]: - u[140] + r[140] <= 0
 mccormick1[141]: - u[141] + r[141] <= 0
 mccormick1[142]: - u[142] + r[142] <= 0
 mccormick1[143]: - u[143] + r[143] <= 0
 mccormick1[144]: - u[144] + r[144] <= 0
 mccormick1[145]: - u[145] + r[145] <= 0
 mccormick1[146]: - u[146] + r[146] <= 0
 mccormick1[147]: - u[147] + r[147] <= 0
 mccormick1[148]: - u[148] + r[148] <= 0
 mccormick1[149]: - u[149] + r[149] <= 0
 mccormick2[0]: - x[0] + r[0] <= 0
 mccormick2[1]: - x[1] + r[1] <= 0
 mccormick2[2]: - x[2] + r[2] <= 0
 mccormick2[3]: - x[3] + r[3] <= 0
 mccormick2[4]: - x[4] + r[4] <= 0
 mccormick2[5]: - x[5] + r[5] <= 0
 mccormick2[6]: - x[6] + r[6] <= 0
 mccormick2[7]: - x[7] + r[7] <= 0
 mccormick2[8]: - x[8] + r[8] <= 0
 mccormick2[9]: - x[9] + r[9] <= 0
 mccormick2[10]: - x[10] + r[10] <= 0
 mccormick2[11]: - x[11] + r[11] <= 0
 mccormick2[12]: - x[12] + r[12] <= 0
 mccormick2[13]: - x[13] + r[13] <= 0
 mccormick2[14]: - x[14] + r[14] <= 0
 mccormick2[15]: - x[15] + r[15] <= 0
 mccormick2[16]: - x[16] + r[16] <= 0
 mccormick2[17]: - x[17] + r[17] <= 0
 mccormick2[18]: - x[18] + r[18] <= 0
 mccormick2[19]: - x[19] + r[19] <= 0
 mccormick2[20]: - x[20] + r[20] <= 0
 mccormick2[21]: - x[21] + r[21] <= 0
 mccormick2[22]: - x[22] + r[22] <= 0
 mccormick2[23]: - x[23] + r[23] <= 0
 mccormick2[24]: - x[24] + r[24] <= 0
 mccormick2[25]: - x[25] + r[25] <= 0
 mccormick2[26]: - x[26] + r[26] <= 0
 mccormick2[27]: - x[27] + r[27] <= 0
 mccormick2[28]: - x[28] + r[28] <= 0
 mccormick2[29]: - x[29] + r[29] <= 0
 mccormick2[30]: - x[30] + r[30] <= 0
 mccormick2[31]: - x[31] + r[31] <= 0
 mccormick2[32]: - x[32] + r[32] <= 0
 mccormick2[33]: - x[33] + r[33] <= 0
 mccormick2[34]: - x[34] + r[34] <= 0
 mccormick2[35]: - x[35] + r[35] <= 0
 mccormick2[36]: - x[36] + r[36] <= 0
 mccormick2[37]: - x[37] + r[37] <= 0
 mccormick2[38]: - x[38] + r[38] <= 0
 mccormick2[39]: - x[39] + r[39] <= 0
 mccormick2[40]: - x[40] + r[40] <= 0
 mccormick2[41]: - x[41] + r[41] <= 0
 mccormick2[42]: - x[42] + r[42] <= 0
 mccormick2[43]: - x[43] + r[43] <= 0
 mccormick2[44]: - x[44] + r[44] <= 0
 mccormick2[45]: - x[45] + r[45] <= 0
 mccormick2[46]: - x[46] + r[46] <= 0
 mccormick2[47]: - x[47] + r[47] <= 0
 mccormick2[48]: - x[48] + r[48] <= 0
 mccormick2[49]: - x[49] + r[49] <= 0
 mccormick2[50]: - x[50] + r[50] <= 0
 mccormick2[51]: - x[51] + r[51] <= 0
 mccormick2[52]: - x[52] + r[52] <= 0
 mccormick2[53]: - x[53] + r[53] <= 0
 mccormick2[54]: - x[54] + r[54] <= 0
 mccormick2[55]: - x[55] + r[55] <= 0
 mccormick2[56]: - x[56] + r[56] <= 0
 mccormick2[57]: - x[57] + r[57] <= 0
 mccormick2[58]: - x[58] + r[58] <= 0
 mccormick2[59]: - x[59] + r[59] <= 0
 mccormick2[60]: - x[60] + r[60] <= 0
 mccormick2[61]: - x[61] + r[61] <= 0
 mccormick2[62]: - x[62] + r[62] <= 0
 mccormick2[63]: - x[63] + r[63] <= 0
 mccormick2[64]: - x[64] + r[64] <= 0
 mccormick2[65]: - x[65] + r[65] <= 0
 mccormick2[66]: - x[66] + r[66] <= 0
 mccormick2[67]: - x[67] + r[67] <= 0
 mccormick2[68]: - x[68] + r[68] <= 0
 mccormick2[69]: - x[69] + r[69] <= 0
 mccormick2[70]: - x[70] + r[70] <= 0
 mccormick2[71]: - x[71] + r[71] <= 0
 mccormick2[72]: - x[72] + r[72] <= 0
 mccormick2[73]: - x[73] + r[73] <= 0
 mccormick2[74]: - x[74] + r[74] <= 0
 mccormick2[75]: - x[75] + r[75] <= 0
 mccormick2[76]: - x[76] + r[76] <= 0
 mccormick2[77]: - x[77] + r[77] <= 0
 mccormick2[78]: - x[78] + r[78] <= 0
 mccormick2[79]: - x[79] + r[79] <= 0
 mccormick2[80]: - x[80] + r[80] <= 0
 mccormick2[81]: - x[81] + r[81] <= 0
 mccormick2[82]: - x[82] + r[82] <= 0
 mccormick2[83]: - x[83] + r[83] <= 0
 mccormick2[84]: - x[84] + r[84] <= 0
 mccormick2[85]: - x[85] + r[85] <= 0
 mccormick2[86]: - x[86] + r[86] <= 0
 mccormick2[87]: - x[87] + r[87] <= 0
 mccormick2[88]: - x[88] + r[88] <= 0
 mccormick2[89]: - x[89] + r[89] <= 0
 mccormick2[90]: - x[90] + r[90] <= 0
 mccormick2[91]: - x[91] + r[91] <= 0
 mccormick2[92]: - x[92] + r[92] <= 0
 mccormick2[93]: - x[93] + r[93] <= 0
 mccormick2[94]: - x[94] + r[94] <= 0
 mccormick2[95]: - x[95] + r[95] <= 0
 mccormick2[96]: - x[96] + r[96] <= 0
 mccormick2[97]: - x[97] + r[97] <= 0
 mccormick2[98]: - x[98] + r[98] <= 0
 mccormick2[99]: - x[99] + r[99] <= 0
 mccormick2[100]: - x[100] + r[100] <= 0
 mccormick2[101]: - x[101] + r[101] <= 0
 mccormick2[102]: - x[102] + r[102] <= 0
 mccormick2[103]: - x[103] + r[103] <= 0
 mccormick2[104]: - x[104] + r[104] <= 0
 mccormick2[105]: - x[105] + r[105] <= 0
 mccormick2[106]: - x[106] + r[106] <= 0
 mccormick2[107]: - x[107] + r[107] <= 0
 mccormick2[108]: - x[108] + r[108] <= 0
 mccormick2[109]: - x[109] + r[109] <= 0
 mccormick2[110]: - x[110] + r[110] <= 0
 mccormick2[111]: - x[111] + r[111] <= 0
 mccormick2[112]: - x[112] + r[112] <= 0
 mccormick2[113]: - x[113] + r[113] <= 0
 mccormick2[114]: - x[114] + r[114] <= 0
 mccormick2[115]: - x[115] + r[115] <= 0
 mccormick2[116]: - x[116] + r[116] <= 0
 mccormick2[117]: - x[117] + r[117] <= 0
 mccormick2[118]: - x[118] + r[118] <= 0
 mccormick2[119]: - x[119] + r[119] <= 0
 mccormick2[120]: - x[120] + r[120] <= 0
 mccormick2[121]: - x[121] + r[121] <= 0
 mccormick2[122]: - x[122] + r[122] <= 0
 mccormick2[123]: - x[123] + r[123] <= 0
 mccormick2[124]: - x[124] + r[124] <= 0
 mccormick2[125]: - x[125] + r[125] <= 0
 mccormick2[126]: - x[126] + r[126] <= 0
 mccormick2[127]: - x[127] + r[127] <= 0
 mccormick2[128]: - x[128] + r[128] <= 0
 mccormick2[129]: - x[129] + r[129] <= 0
 mccormick2[130]: - x[130] + r[130] <= 0
 mccormick2[131]: - x[131] + r[131] <= 0
 mccormick2[132]: - x[132] + r[132] <= 0
 mccormick2[133]: - x[133] + r[133] <= 0
 mccormick2[134]: - x[134] + r[134] <= 0
 mccormick2[135]: - x[135] + r[135] <= 0
 mccormick2[136]: - x[136] + r[136] <= 0
 mccormick2[137]: - x[137] + r[137] <= 0
 mccormick2[138]: - x[138] + r[138] <= 0
 mccormick2[139]: - x[139] + r[139] <= 0
 mccormick2[140]: - x[140] + r[140] <= 0
 mccormick2[141]: - x[141] + r[141] <= 0
 mccormick2[142]: - x[142] + r[142] <= 0
 mccormick2[143]: - x[143] + r[143] <= 0
 mccormick2[144]: - x[144] + r[144] <= 0
 mccormick2[145]: - x[145] + r[145] <= 0
 mccormick2[146]: - x[146] + r[146] <= 0
 mccormick2[147]: - x[147] + r[147] <= 0
 mccormick2[148]: - x[148] + r[148] <= 0
 mccormick2[149]: - x[149] + r[149] <= 0
 mccormick3[0]: x[0] + u[0] - r[0] <= 1
 mccormick3[1]: x[1] + u[1] - r[1] <= 1
 mccormick3[2]: x[2] + u[2] - r[2] <= 1
 mccormick3[3]: x[3] + u[3] - r[3] <= 1
 mccormick3[4]: x[4] + u[4] - r[4] <= 1
 mccormick3[5]: x[5] + u[5] - r[5] <= 1
 mccormick3[6]: x[6] + u[6] - r[6] <= 1
 mccormick3[7]: x[7] + u[7] - r[7] <= 1
 mccormick3[8]: x[8] + u[8] - r[8] <= 1
 mccormick3[9]: x[9] + u[9] - r[9] <= 1
 mccormick3[10]: x[10] + u[10] - r[10] <= 1
 mccormick3[11]: x[11] + u[11] - r[11] <= 1
 mccormick3[12]: x[12] + u[12] - r[12] <= 1
 mccormick3[13]: x[13] + u[13] - r[13] <= 1
 mccormick3[14]: x[14] + u[14] - r[14] <= 1
 mccormick3[15]: x[15] + u[15] - r[15] <= 1
 mccormick3[16]: x[16] + u[16] - r[16] <= 1
 mccormick3[17]: x[17] + u[17] - r[17] <= 1
 mccormick3[18]: x[18] + u[18] - r[18] <= 1
 mccormick3[19]: x[19] + u[19] - r[19] <= 1
 mccormick3[20]: x[20] + u[20] - r[20] <= 1
 mccormick3[21]: x[21] + u[21] - r[21] <= 1
 mccormick3[22]: x[22] + u[22] - r[22] <= 1
 mccormick3[23]: x[23] + u[23] - r[23] <= 1
 mccormick3[24]: x[24] + u[24] - r[24] <= 1
 mccormick3[25]: x[25] + u[25] - r[25] <= 1
 mccormick3[26]: x[26] + u[26] - r[26] <= 1
 mccormick3[27]: x[27] + u[27] - r[27] <= 1
 mccormick3[28]: x[28] + u[28] - r[28] <= 1
 mccormick3[29]: x[29] + u[29] - r[29] <= 1
 mccormick3[30]: x[30] + u[30] - r[30] <= 1
 mccormick3[31]: x[31] + u[31] - r[31] <= 1
 mccormick3[32]: x[32] + u[32] - r[32] <= 1
 mccormick3[33]: x[33] + u[33] - r[33] <= 1
 mccormick3[34]: x[34] + u[34] - r[34] <= 1
 mccormick3[35]: x[35] + u[35] - r[35] <= 1
 mccormick3[36]: x[36] + u[36] - r[36] <= 1
 mccormick3[37]: x[37] + u[37] - r[37] <= 1
 mccormick3[38]: x[38] + u[38] - r[38] <= 1
 mccormick3[39]: x[39] + u[39] - r[39] <= 1
 mccormick3[40]: x[40] + u[40] - r[40] <= 1
 mccormick3[41]: x[41] + u[41] - r[41] <= 1
 mccormick3[42]: x[42] + u[42] - r[42] <= 1
 mccormick3[43]: x[43] + u[43] - r[43] <= 1
 mccormick3[44]: x[44] + u[44] - r[44] <= 1
 mccormick3[45]: x[45] + u[45] - r[45] <= 1
 mccormick3[46]: x[46] + u[46] - r[46] <= 1
 mccormick3[47]: x[47] + u[47] - r[47] <= 1
 mccormick3[48]: x[48] + u[48] - r[48] <= 1
 mccormick3[49]: x[49] + u[49] - r[49] <= 1
 mccormick3[50]: x[50] + u[50] - r[50] <= 1
 mccormick3[51]: x[51] + u[51] - r[51] <= 1
 mccormick3[52]: x[52] + u[52] - r[52] <= 1
 mccormick3[53]: x[53] + u[53] - r[53] <= 1
 mccormick3[54]: x[54] + u[54] - r[54] <= 1
 mccormick3[55]: x[55] + u[55] - r[55] <= 1
 mccormick3[56]: x[56] + u[56] - r[56] <= 1
 mccormick3[57]: x[57] + u[57] - r[57] <= 1
 mccormick3[58]: x[58] + u[58] - r[58] <= 1
 mccormick3[59]: x[59] + u[59] - r[59] <= 1
 mccormick3[60]: x[60] + u[60] - r[60] <= 1
 mccormick3[61]: x[61] + u[61] - r[61] <= 1
 mccormick3[62]: x[62] + u[62] - r[62] <= 1
 mccormick3[63]: x[63] + u[63] - r[63] <= 1
 mccormick3[64]: x[64] + u[64] - r[64] <= 1
 mccormick3[65]: x[65] + u[65] - r[65] <= 1
 mccormick3[66]: x[66] + u[66] - r[66] <= 1
 mccormick3[67]: x[67] + u[67] - r[67] <= 1
 mccormick3[68]: x[68] + u[68] - r[68] <= 1
 mccormick3[69]: x[69] + u[69] - r[69] <= 1
 mccormick3[70]: x[70] + u[70] - r[70] <= 1
 mccormick3[71]: x[71] + u[71] - r[71] <= 1
 mccormick3[72]: x[72] + u[72] - r[72] <= 1
 mccormick3[73]: x[73] + u[73] - r[73] <= 1
 mccormick3[74]: x[74] + u[74] - r[74] <= 1
 mccormick3[75]: x[75] + u[75] - r[75] <= 1
 mccormick3[76]: x[76] + u[76] - r[76] <= 1
 mccormick3[77]: x[77] + u[77] - r[77] <= 1
 mccormick3[78]: x[78] + u[78] - r[78] <= 1
 mccormick3[79]: x[79] + u[79] - r[79] <= 1
 mccormick3[80]: x[80] + u[80] - r[80] <= 1
 mccormick3[81]: x[81] + u[81] - r[81] <= 1
 mccormick3[82]: x[82] + u[82] - r[82] <= 1
 mccormick3[83]: x[83] + u[83] - r[83] <= 1
 mccormick3[84]: x[84] + u[84] - r[84] <= 1
 mccormick3[85]: x[85] + u[85] - r[85] <= 1
 mccormick3[86]: x[86] + u[86] - r[86] <= 1
 mccormick3[87]: x[87] + u[87] - r[87] <= 1
 mccormick3[88]: x[88] + u[88] - r[88] <= 1
 mccormick3[89]: x[89] + u[89] - r[89] <= 1
 mccormick3[90]: x[90] + u[90] - r[90] <= 1
 mccormick3[91]: x[91] + u[91] - r[91] <= 1
 mccormick3[92]: x[92] + u[92] - r[92] <= 1
 mccormick3[93]: x[93] + u[93] - r[93] <= 1
 mccormick3[94]: x[94] + u[94] - r[94] <= 1
 mccormick3[95]: x[95] + u[95] - r[95] <= 1
 mccormick3[96]: x[96] + u[96] - r[96] <= 1
 mccormick3[97]: x[97] + u[97] - r[97] <= 1
 mccormick3[98]: x[98] + u[98] - r[98] <= 1
 mccormick3[99]: x[99] + u[99] - r[99] <= 1
 mccormick3[100]: x[100] + u[100] - r[100] <= 1
 mccormick3[101]: x[101] + u[101] - r[101] <= 1
 mccormick3[102]: x[102] + u[102] - r[102] <= 1
 mccormick3[103]: x[103] + u[103] - r[103] <= 1
 mccormick3[104]: x[104] + u[104] - r[104] <= 1
 mccormick3[105]: x[105] + u[105] - r[105] <= 1
 mccormick3[106]: x[106] + u[106] - r[106] <= 1
 mccormick3[107]: x[107] + u[107] - r[107] <= 1
 mccormick3[108]: x[108] + u[108] - r[108] <= 1
 mccormick3[109]: x[109] + u[109] - r[109] <= 1
 mccormick3[110]: x[110] + u[110] - r[110] <= 1
 mccormick3[111]: x[111] + u[111] - r[111] <= 1
 mccormick3[112]: x[112] + u[112] - r[112] <= 1
 mccormick3[113]: x[113] + u[113] - r[113] <= 1
 mccormick3[114]: x[114] + u[114] - r[114] <= 1
 mccormick3[115]: x[115] + u[115] - r[115] <= 1
 mccormick3[116]: x[116] + u[116] - r[116] <= 1
 mccormick3[117]: x[117] + u[117] - r[117] <= 1
 mccormick3[118]: x[118] + u[118] - r[118] <= 1
 mccormick3[119]: x[119] + u[119] - r[119] <= 1
 mccormick3[120]: x[120] + u[120] - r[120] <= 1
 mccormick3[121]: x[121] + u[121] - r[121] <= 1
 mccormick3[122]: x[122] + u[122] - r[122] <= 1
 mccormick3[123]: x[123] + u[123] - r[123] <= 1
 mccormick3[124]: x[124] + u[124] - r[124] <= 1
 mccormick3[125]: x[125] + u[125] - r[125] <= 1
 mccormick3[126]: x[126] + u[126] - r[126] <= 1
 mccormick3[127]: x[127] + u[127] - r[127] <= 1
 mccormick3[128]: x[128] + u[128] - r[128] <= 1
 mccormick3[129]: x[129] + u[129] - r[129] <= 1
 mccormick3[130]: x[130] + u[130] - r[130] <= 1
 mccormick3[131]: x[131] + u[131] - r[131] <= 1
 mccormick3[132]: x[132] + u[132] - r[132] <= 1
 mccormick3[133]: x[133] + u[133] - r[133] <= 1
 mccormick3[134]: x[134] + u[134] - r[134] <= 1
 mccormick3[135]: x[135] + u[135] - r[135] <= 1
 mccormick3[136]: x[136] + u[136] - r[136] <= 1
 mccormick3[137]: x[137] + u[137] - r[137] <= 1
 mccormick3[138]: x[138] + u[138] - r[138] <= 1
 mccormick3[139]: x[139] + u[139] - r[139] <= 1
 mccormick3[140]: x[140] + u[140] - r[140] <= 1
 mccormick3[141]: x[141] + u[141] - r[141] <= 1
 mccormick3[142]: x[142] + u[142] - r[142] <= 1
 mccormick3[143]: x[143] + u[143] - r[143] <= 1
 mccormick3[144]: x[144] + u[144] - r[144] <= 1
 mccormick3[145]: x[145] + u[145] - r[145] <= 1
 mccormick3[146]: x[146] + u[146] - r[146] <= 1
 mccormick3[147]: x[147] + u[147] - r[147] <= 1
 mccormick3[148]: x[148] + u[148] - r[148] <= 1
 mccormick3[149]: x[149] + u[149] - r[149] <= 1
Bounds
Binaries
 x[0] x[1] x[2] x[3] x[4] x[5] x[6] x[7] x[8] x[9] x[10] x[11] x[12] x[13]
 x[14] x[15] x[16] x[17] x[18] x[19] x[20] x[21] x[22] x[23] x[24] x[25]
 x[26] x[27] x[28] x[29] x[30] x[31] x[32] x[33] x[34] x[35] x[36] x[37]
 x[38] x[39] x[40] x[41] x[42] x[43] x[44] x[45] x[46] x[47] x[48] x[49]
 x[50] x[51] x[52] x[53] x[54] x[55] x[56] x[57] x[58] x[59] x[60] x[61]
 x[62] x[63] x[64] x[65] x[66] x[67] x[68] x[69] x[70] x[71] x[72] x[73]
 x[74] x[75] x[76] x[77] x[78] x[79] x[80] x[81] x[82] x[83] x[84] x[85]
 x[86] x[87] x[88] x[89] x[90] x[91] x[92] x[93] x[94] x[95] x[96] x[97]
 x[98] x[99] x[100] x[101] x[102] x[103] x[104] x[105] x[106] x[107] x[108]
 x[109] x[110] x[111] x[112] x[113] x[114] x[115] x[116] x[117] x[118]
 x[119] x[120] x[121] x[122] x[123] x[124] x[125] x[126] x[127] x[128]
 x[129] x[130] x[131] x[132] x[133] x[134] x[135] x[136] x[137] x[138]
 x[139] x[140] x[141] x[142] x[143] x[144] x[145] x[146] x[147] x[148]
 x[149] u[0] u[1] u[2] u[3] u[4] u[5] u[6] u[7] u[8] u[9] u[10] u[11] u[12]
 u[13] u[14] u[15] u[16] u[17] u[18] u[19] u[20] u[21] u[22] u[23] u[24]
 u[25] u[26] u[27] u[28] u[29] u[30] u[31] u[32] u[33] u[34] u[35] u[36]
 u[37] u[38] u[39] u[40] u[41] u[42] u[43] u[44] u[45] u[46] u[47] u[48]
 u[49] u[50] u[51] u[52] u[53] u[54] u[55] u[56] u[57] u[58] u[59] u[60]
 u[61] u[62] u[63] u[64] u[65] u[66] u[67] u[68] u[69] u[70] u[71] u[72]
 u[73] u[74] u[75] u[76] u[77] u[78] u[79] u[80] u[81] u[82] u[83] u[84]
 u[85] u[86] u[87] u[88] u[89] u[90] u[91] u[92] u[93] u[94] u[95] u[96]
 u[97] u[98] u[99] u[100] u[101] u[102] u[103] u[104] u[105] u[106] u[107]
 u[108] u[109] u[110] u[111] u[112] u[113] u[114] u[115] u[116] u[117]
 u[118] u[119] u[120] u[121] u[122] u[123] u[124] u[125] u[126] u[127]
 u[128] u[129] u[130] u[131] u[132] u[133] u[134] u[135] u[136] u[137]
 u[138] u[139] u[140] u[141] u[142] u[143] u[144] u[145] u[146] u[147]
 u[148] u[149] r[0] r[1] r[2] r[3] r[4] r[5] r[6] r[7] r[8] r[9] r[10]
 r[11] r[12] r[13] r[14] r[15] r[16] r[17] r[18] r[19] r[20] r[21] r[22]
 r[23] r[24] r[25] r[26] r[27] r[28] r[29] r[30] r[31] r[32] r[33] r[34]
 r[35] r[36] r[37] r[38] r[39] r[40] r[41] r[42] r[43] r[44] r[45] r[46]
 r[47] r[48] r[49] r[50] r[51] r[52] r[53] r[54] r[55] r[56] r[57] r[58]
 r[59] r[60] r[61] r[62] r[63] r[64] r[65] r[66] r[67] r[68] r[69] r[70]
 r[71] r[72] r[73] r[74] r[75] r[76] r[77] r[78] r[79] r[80] r[81] r[82]
 r[83] r[84] r[85] r[86] r[87] r[88] r[89] r[90] r[91] r[92] r[93] r[94]
 r[95] r[96] r[97] r[98] r[99] r[100] r[101] r[102] r[103] r[104] r[105]
 r[106] r[107] r[108] r[109] r[110] r[111] r[112] r[113] r[114] r[115]
 r[116] r[117] r[118] r[119] r[120] r[121] r[122] r[123] r[124] r[125]
 r[126] r[127] r[128] r[129] r[130] r[131] r[132] r[133] r[134] r[135]
 r[136] r[137] r[138] r[139] r[140] r[141] r[142] r[143] r[144] r[145]
 r[146] r[147] r[148] r[149]
End
