instances/knapsack/discrete/knapsack_150_9.kp
51538
150
667

16 1.6 70
52 5.2 55
66 6.6 36
15 1.5 28
16 1.6 74
2 0.2 9
25 2.5 66
28 2.8 96
49 4.9 55
18 1.8 83
40 4.0 31
51 5.1 63
52 5.2 39
40 4.0 98
61 6.1 11
25 2.5 44
97 9.7 6
32 3.2 14
89 8.9 91
18 1.8 58
57 5.7 6
8 0.8 27
40 4.0 36
55 5.5 40
57 5.7 49
68 6.8 75
14 1.4 56
88 8.8 24
66 6.6 58
95 9.5 49
78 7.8 77
76 7.6 48
60 6.0 48
73 7.3 59
4 0.4 36
49 4.9 89
56 5.6 33
97 9.7 43
40 4.0 83
43 4.3 20
15 1.5 80
66 6.6 30
46 4.6 38
86 8.6 75
23 2.3 63
59 5.9 87
70 7.0 5
14 1.4 25
55 5.5 65
12 1.2 22
47 4.7 59
88 8.8 79
5 0.5 91
12 1.2 89
45 4.5 16
68 6.8 2
57 5.7 71
11 1.1 92
24 2.4 64
30 3.0 59
57 5.7 60
19 1.9 18
92 9.2 82
19 1.9 34
76 7.6 51
96 9.6 61
61 6.1 41
23 2.3 34
32 3.2 37
42 4.2 42
90 9.0 69
50 5.0 15
74 7.4 57
71 7.1 82
92 9.2 35
9 0.9 14
15 1.5 82
67 6.7 29
69 6.9 92
7 0.7 40
58 5.8 31
26 2.6 86
79 7.9 38
34 3.4 2
54 5.4 89
50 5.0 89
76 7.6 62
60 6.0 11
22 2.2 12
83 8.3 75
89 8.9 82
61 6.1 98
5 0.5 54
20 2.0 53
20 2.0 100
41 4.1 83
5 0.5 45
81 8.1 64
16 1.6 53
68 6.8 45
41 4.1 73
16 1.6 42
14 1.4 67
52 5.2 82
1 0.1 87
62 6.2 67
79 7.9 46
3 0.3 61
19 1.9 66
93 9.3 45
19 1.9 10
79 7.9 66
81 8.1 62
73 7.3 76
97 9.7 54
3 0.3 29
27 2.7 23
65 6.5 73
61 6.1 46
21 2.1 31
56 5.6 66
93 9.3 3
16 1.6 78
63 6.3 39
33 3.3 100
11 1.1 1
28 2.8 61
76 7.6 70
15 1.5 28
19 1.9 93
86 8.6 91
89 8.9 35
79 7.9 92
60 6.0 43
13 1.3 14
14 1.4 48
41 4.1 49
99 9.9 42
6 0.6 59
56 5.6 66
63 6.3 42
29 2.9 49
27 2.7 98
23 2.3 72
93 9.3 80
22 2.2 31
38 3.8 5
71 7.1 7
25 2.5 77
2 0.2 3

52435
736

[0.08794672411901906 4.713154418941571 3.994735646584779 2.6313145007836907 0.914220831527922 3.059962369032899 4.025887270705813 2.2406692416789915 3.552688101362328 2.3766249875114807 0.2572088687240678 0.48314704683508797 0.047181760144340494 4.247104886178912 3.8228554473817185 0.4194275022915176 2.9080473124874815 0.12869824126599663 4.2714892746884425 0.3134546560670286 1.068292017173845 4.6241261695896165 1.091961539187299 2.961271020672531 1.6766603272594731 3.1932879591575554 2.297990157816059 0.050956731798124814 3.8777298029951264 1.0793403731332285 1.3150779625241655 3.507063460159237 3.639614703523255 1.9854963514060802 2.2153551579233577 1.2978423550568723 0.5519043159891781 2.747307796653932 3.8616201556099745 3.8730663761908146 3.694998981408105 3.866970169377054 0.6939350476978962 1.0657676666801217 3.8465585867010237 2.7062860575878727 1.0495141653305269 0.5829720502906192 0.9727078233968857 2.609271302026298 0.2358398766532208 1.6856947827312756 0.14135192067304386 0.346499750700257 2.1072494334151353 1.802392614061941 2.166812268074436 2.262940183745981 0.8971985812864476 1.017956898802392 1.8736000157450763 4.054471290361947 2.8952607165675563 4.081722590066023 2.5137623058043346 1.3482136000282179 0.7121628438753773 4.518729697005802 4.169899786716556 0.2120826866689361 4.251384549500995 1.5852547068467415 0.892604782746164 4.4269642131961735 3.0349276444536364 1.1663902248485034 3.522701784444359 4.170286529171736 4.445329686485244 2.4059048730888053 4.643578345168794 2.1343801398791147 2.7924325931954077 1.7138531076752068 2.35338602205251 4.7325927629269815 2.9424079942094647 0.47252057573387657 1.396031216887638 3.040337927227681 1.9989645903799713 1.2391444722058904 1.5038703383774163 4.88768777619977 3.730578774853445 0.9218116864459994 3.874544039687796 2.3832727809168026 2.9677846897231075 1.5555851521810529 3.333541900364883 0.28896298843665524 3.8765962461610766 3.0686205098914683 2.296162890636689 3.26342274323758 4.511771208108761 4.445512294123422 4.402725448308916 0.7919660078185294 2.1299179545248528 0.24829870357328132 0.01938297950425081 4.598307875872082 4.73039667411239 3.5414764978364985 1.9998110587531377 0.153484122187509 2.8463052699280462 0.795618045333289 4.8778858348926 3.1635158255707703 1.847633518397293 0.5376799159088136 0.6007720277102958 3.485240217448016 1.1452311187291264 2.3529673098707367 1.4325766976788286 4.2347561304412125 0.949731125463008 0.6439333183129609 1.4983979006610515 0.5908981869402339 0.5987878481152501 3.377608345361045 0.3266603815300906 4.508397478745317 2.8060943365169893 4.188353258747628 4.720138264894436 3.6669978988188183 1.8257236575257574 0.9731094051218112 3.9251494688819792 3.717648983024151 3.1184243776896694 0.9755492935768079 4.081318578395056 3.862142068468803]

[10 67 25 78 95 40 76 42 60 53 46 38 19 11 51 27 8 91 64 93 60 78 31 45 39 15 25 90 36 78 84 26 78 44 3 96 7 91 91 9 30 36 49 44 54 65 96 4 26 39 85 27 60 95 19 82 68 5 67 77 67 97 62 1 70 95 11 65 15 16 80 32 21 18 42 3 45 98 35 25 68 28 49 76 80 56 98 31 85 10 15 51 7 90 63 32 92 43 3 71 28 83 41 35 48 45 26 69 17 72 97 6 88 36 44 93 94 100 96 79 2 75 82 49 88 33 46 18 9 90 80 60 9 59 83 41 56 89 60 59 18 7 34 70 44 53 69 90 55 9]
